# 26248
param k := 6;
param n := 60;
param s := 1;
set E :=  (0,5) (0,17) (0,43) (1,20) (1,23) (2,6) (2,14) (3,14) (4,28) (5,26) (5,58) (6,21) (6,38) (7,10) (7,44) (8,28) (8,32) (8,49) (9,42) (9,55) (10,25) (11,15) (11,25) (12,13) (12,42) (13,31) (14,16) (14,18) (15,36) (17,48) (18,27) (19,40) (20,55) (21,33) (22,41) (22,55) (24,40) (25,40) (25,57) (25,59) (28,53) (29,39) (29,41) (29,45) (29,46) (30,39) (34,38) (34,42) (34,59) (35,42) (35,47) (35,52) (37,44) (38,54) (39,50) (42,51) (49,55) (49,56) (50,58);